18 83 45 8 46 49 19 10 70 
94 92 97 42 15 43 38 44 14 87 13 95 59 93 85 61 17 86 16 91 100 37 98 96 
26 21 72 75 39 67 23 56 4 55 25 54 12 
40 2 57 41 22 74 73 58 
50 33 81 65 20 30 69 1 76 24 29 79 78 9 51 90 63 32 66 71 35 34 3 68 80 77 28 
27 52 7 82 48 47 36 64 11 62 88 31 53 
6 99 5 84 60 89 
